c Output from iscas2cnf
cc inputs 1 2 3 4 5 6 7 8 9 10 11 12 13 14 15 16 17 18 19 20 21 22 23 24 25 26 27 28 29 30 31 32 33 34 35 36 37 38 39 40 41 
cc outputs 42 
p cnf 950 2774
-1 2 43 0
1 -2 43 0
-1 -2 -43 0
1 2 -43 0
-3 4 44 0
3 -4 44 0
-3 -4 -44 0
3 4 -44 0
-5 6 45 0
5 -6 45 0
-5 -6 -45 0
5 6 -45 0
-7 8 46 0
7 -8 46 0
-7 -8 -46 0
7 8 -46 0
-9 10 47 0
9 -10 47 0
-9 -10 -47 0
9 10 -47 0
-11 12 48 0
11 -12 48 0
-11 -12 -48 0
11 12 -48 0
-13 14 49 0
13 -14 49 0
-13 -14 -49 0
13 14 -49 0
-15 16 50 0
15 -16 50 0
-15 -16 -50 0
15 16 -50 0
-17 18 51 0
17 -18 51 0
-17 -18 -51 0
17 18 -51 0
-19 20 52 0
19 -20 52 0
-19 -20 -52 0
19 20 -52 0
-21 22 53 0
21 -22 53 0
-21 -22 -53 0
21 22 -53 0
-23 24 54 0
23 -24 54 0
-23 -24 -54 0
23 24 -54 0
-25 26 55 0
25 -26 55 0
-25 -26 -55 0
25 26 -55 0
-27 28 56 0
27 -28 56 0
-27 -28 -56 0
27 28 -56 0
-29 30 57 0
29 -30 57 0
-29 -30 -57 0
29 30 -57 0
-31 32 58 0
31 -32 58 0
-31 -32 -58 0
31 32 -58 0
33 -59 0
41 -59 0
59 -33 -41 0
34 -60 0
41 -60 0
60 -34 -41 0
35 -61 0
41 -61 0
61 -35 -41 0
36 -62 0
41 -62 0
62 -36 -41 0
37 -63 0
41 -63 0
63 -37 -41 0
38 -64 0
41 -64 0
64 -38 -41 0
39 -65 0
41 -65 0
65 -39 -41 0
40 -66 0
41 -66 0
66 -40 -41 0
-1 5 67 0
1 -5 67 0
-1 -5 -67 0
1 5 -67 0
-9 13 68 0
9 -13 68 0
-9 -13 -68 0
9 13 -68 0
-2 6 69 0
2 -6 69 0
-2 -6 -69 0
2 6 -69 0
-10 14 70 0
10 -14 70 0
-10 -14 -70 0
10 14 -70 0
-3 7 71 0
3 -7 71 0
-3 -7 -71 0
3 7 -71 0
-11 15 72 0
11 -15 72 0
-11 -15 -72 0
11 15 -72 0
-4 8 73 0
4 -8 73 0
-4 -8 -73 0
4 8 -73 0
-12 16 74 0
12 -16 74 0
-12 -16 -74 0
12 16 -74 0
-17 21 75 0
17 -21 75 0
-17 -21 -75 0
17 21 -75 0
-25 29 76 0
25 -29 76 0
-25 -29 -76 0
25 29 -76 0
-18 22 77 0
18 -22 77 0
-18 -22 -77 0
18 22 -77 0
-26 30 78 0
26 -30 78 0
-26 -30 -78 0
26 30 -78 0
-19 23 79 0
19 -23 79 0
-19 -23 -79 0
19 23 -79 0
-27 31 80 0
27 -31 80 0
-27 -31 -80 0
27 31 -80 0
-20 24 81 0
20 -24 81 0
-20 -24 -81 0
20 24 -81 0
-28 32 82 0
28 -32 82 0
-28 -32 -82 0
28 32 -82 0
-43 44 83 0
43 -44 83 0
-43 -44 -83 0
43 44 -83 0
-45 46 84 0
45 -46 84 0
-45 -46 -84 0
45 46 -84 0
-47 48 85 0
47 -48 85 0
-47 -48 -85 0
47 48 -85 0
-49 50 86 0
49 -50 86 0
-49 -50 -86 0
49 50 -86 0
-51 52 87 0
51 -52 87 0
-51 -52 -87 0
51 52 -87 0
-53 54 88 0
53 -54 88 0
-53 -54 -88 0
53 54 -88 0
-55 56 89 0
55 -56 89 0
-55 -56 -89 0
55 56 -89 0
-57 58 90 0
57 -58 90 0
-57 -58 -90 0
57 58 -90 0
-67 68 91 0
67 -68 91 0
-67 -68 -91 0
67 68 -91 0
-69 70 92 0
69 -70 92 0
-69 -70 -92 0
69 70 -92 0
-71 72 93 0
71 -72 93 0
-71 -72 -93 0
71 72 -93 0
-73 74 94 0
73 -74 94 0
-73 -74 -94 0
73 74 -94 0
-75 76 95 0
75 -76 95 0
-75 -76 -95 0
75 76 -95 0
-77 78 96 0
77 -78 96 0
-77 -78 -96 0
77 78 -96 0
-79 80 97 0
79 -80 97 0
-79 -80 -97 0
79 80 -97 0
-81 82 98 0
81 -82 98 0
-81 -82 -98 0
81 82 -98 0
-83 84 99 0
83 -84 99 0
-83 -84 -99 0
83 84 -99 0
-85 86 100 0
85 -86 100 0
-85 -86 -100 0
85 86 -100 0
-83 85 101 0
83 -85 101 0
-83 -85 -101 0
83 85 -101 0
-84 86 102 0
84 -86 102 0
-84 -86 -102 0
84 86 -102 0
-87 88 103 0
87 -88 103 0
-87 -88 -103 0
87 88 -103 0
-89 90 104 0
89 -90 104 0
-89 -90 -104 0
89 90 -104 0
-87 89 105 0
87 -89 105 0
-87 -89 -105 0
87 89 -105 0
-88 90 106 0
88 -90 106 0
-88 -90 -106 0
88 90 -106 0
-59 103 107 0
59 -103 107 0
-59 -103 -107 0
59 103 -107 0
-60 104 108 0
60 -104 108 0
-60 -104 -108 0
60 104 -108 0
-61 105 109 0
61 -105 109 0
-61 -105 -109 0
61 105 -109 0
-62 106 110 0
62 -106 110 0
-62 -106 -110 0
62 106 -110 0
-63 99 111 0
63 -99 111 0
-63 -99 -111 0
63 99 -111 0
-64 100 112 0
64 -100 112 0
-64 -100 -112 0
64 100 -112 0
-65 101 113 0
65 -101 113 0
-65 -101 -113 0
65 101 -113 0
-66 102 114 0
66 -102 114 0
-66 -102 -114 0
66 102 -114 0
-91 107 115 0
91 -107 115 0
-91 -107 -115 0
91 107 -115 0
-92 108 116 0
92 -108 116 0
-92 -108 -116 0
92 108 -116 0
-93 109 117 0
93 -109 117 0
-93 -109 -117 0
93 109 -117 0
-94 110 118 0
94 -110 118 0
-94 -110 -118 0
94 110 -118 0
-95 111 119 0
95 -111 119 0
-95 -111 -119 0
95 111 -119 0
-96 112 120 0
96 -112 120 0
-96 -112 -120 0
96 112 -120 0
-97 113 121 0
97 -113 121 0
-97 -113 -121 0
97 113 -121 0
-98 114 122 0
98 -114 122 0
-98 -114 -122 0
98 114 -122 0
-115 -123 0
115 123 0
-116 -124 0
116 124 0
-117 -125 0
117 125 0
-115 -126 0
115 126 0
-116 -127 0
116 127 0
-118 -128 0
118 128 0
-115 -129 0
115 129 0
-117 -130 0
117 130 0
-118 -131 0
118 131 0
-116 -132 0
116 132 0
-117 -133 0
117 133 0
-118 -134 0
118 134 0
-120 -135 0
120 135 0
-122 -136 0
122 136 0
-120 -137 0
120 137 0
-121 -138 0
121 138 0
-119 -139 0
119 139 0
-122 -140 0
122 140 0
-119 -141 0
119 141 0
-121 -142 0
121 142 0
-119 -143 0
119 143 0
-120 -144 0
120 144 0
-121 -145 0
121 145 0
-119 -146 0
119 146 0
-120 -147 0
120 147 0
-122 -148 0
122 148 0
-119 -149 0
119 149 0
-121 -150 0
121 150 0
-122 -151 0
122 151 0
-120 -152 0
120 152 0
-121 -153 0
121 153 0
-122 -154 0
122 154 0
-116 -155 0
116 155 0
-118 -156 0
118 156 0
-116 -157 0
116 157 0
-117 -158 0
117 158 0
-115 -159 0
115 159 0
-118 -160 0
118 160 0
-115 -161 0
115 161 0
-117 -162 0
117 162 0
123 -163 0
124 -163 0
125 -163 0
118 -163 0
163 -123 -124 -125 -118 0
126 -164 0
127 -164 0
117 -164 0
128 -164 0
164 -126 -127 -117 -128 0
129 -165 0
116 -165 0
130 -165 0
131 -165 0
165 -129 -116 -130 -131 0
115 -166 0
132 -166 0
133 -166 0
134 -166 0
166 -115 -132 -133 -134 0
143 -167 0
144 -167 0
145 -167 0
122 -167 0
167 -143 -144 -145 -122 0
146 -168 0
147 -168 0
121 -168 0
148 -168 0
168 -146 -147 -121 -148 0
149 -169 0
120 -169 0
150 -169 0
151 -169 0
169 -149 -120 -150 -151 0
119 -170 0
152 -170 0
153 -170 0
154 -170 0
170 -119 -152 -153 -154 0
-163 171 0
-164 171 0
-165 171 0
-166 171 0
-171 163 164 165 166 0
-167 172 0
-168 172 0
-169 172 0
-170 172 0
-172 167 168 169 170 0
119 -173 0
135 -173 0
121 -173 0
136 -173 0
171 -173 0
173 -119 -135 -121 -136 -171 0
119 -174 0
137 -174 0
138 -174 0
122 -174 0
171 -174 0
174 -119 -137 -138 -122 -171 0
139 -175 0
120 -175 0
121 -175 0
140 -175 0
171 -175 0
175 -139 -120 -121 -140 -171 0
141 -176 0
120 -176 0
142 -176 0
122 -176 0
171 -176 0
176 -141 -120 -142 -122 -171 0
115 -177 0
155 -177 0
117 -177 0
156 -177 0
172 -177 0
177 -115 -155 -117 -156 -172 0
115 -178 0
157 -178 0
158 -178 0
118 -178 0
172 -178 0
178 -115 -157 -158 -118 -172 0
159 -179 0
116 -179 0
117 -179 0
160 -179 0
172 -179 0
179 -159 -116 -117 -160 -172 0
161 -180 0
116 -180 0
162 -180 0
118 -180 0
172 -180 0
180 -161 -116 -162 -118 -172 0
115 -181 0
173 -181 0
181 -115 -173 0
116 -182 0
173 -182 0
182 -116 -173 0
117 -183 0
173 -183 0
183 -117 -173 0
118 -184 0
173 -184 0
184 -118 -173 0
115 -185 0
174 -185 0
185 -115 -174 0
116 -186 0
174 -186 0
186 -116 -174 0
117 -187 0
174 -187 0
187 -117 -174 0
118 -188 0
174 -188 0
188 -118 -174 0
115 -189 0
175 -189 0
189 -115 -175 0
116 -190 0
175 -190 0
190 -116 -175 0
117 -191 0
175 -191 0
191 -117 -175 0
118 -192 0
175 -192 0
192 -118 -175 0
115 -193 0
176 -193 0
193 -115 -176 0
116 -194 0
176 -194 0
194 -116 -176 0
117 -195 0
176 -195 0
195 -117 -176 0
118 -196 0
176 -196 0
196 -118 -176 0
119 -197 0
177 -197 0
197 -119 -177 0
120 -198 0
177 -198 0
198 -120 -177 0
121 -199 0
177 -199 0
199 -121 -177 0
122 -200 0
177 -200 0
200 -122 -177 0
119 -201 0
178 -201 0
201 -119 -178 0
120 -202 0
178 -202 0
202 -120 -178 0
121 -203 0
178 -203 0
203 -121 -178 0
122 -204 0
178 -204 0
204 -122 -178 0
119 -205 0
179 -205 0
205 -119 -179 0
120 -206 0
179 -206 0
206 -120 -179 0
121 -207 0
179 -207 0
207 -121 -179 0
122 -208 0
179 -208 0
208 -122 -179 0
119 -209 0
180 -209 0
209 -119 -180 0
120 -210 0
180 -210 0
210 -120 -180 0
121 -211 0
180 -211 0
211 -121 -180 0
122 -212 0
180 -212 0
212 -122 -180 0
-1 181 213 0
1 -181 213 0
-1 -181 -213 0
1 181 -213 0
-2 182 214 0
2 -182 214 0
-2 -182 -214 0
2 182 -214 0
-3 183 215 0
3 -183 215 0
-3 -183 -215 0
3 183 -215 0
-4 184 216 0
4 -184 216 0
-4 -184 -216 0
4 184 -216 0
-5 185 217 0
5 -185 217 0
-5 -185 -217 0
5 185 -217 0
-6 186 218 0
6 -186 218 0
-6 -186 -218 0
6 186 -218 0
-7 187 219 0
7 -187 219 0
-7 -187 -219 0
7 187 -219 0
-8 188 220 0
8 -188 220 0
-8 -188 -220 0
8 188 -220 0
-9 189 221 0
9 -189 221 0
-9 -189 -221 0
9 189 -221 0
-10 190 222 0
10 -190 222 0
-10 -190 -222 0
10 190 -222 0
-11 191 223 0
11 -191 223 0
-11 -191 -223 0
11 191 -223 0
-12 192 224 0
12 -192 224 0
-12 -192 -224 0
12 192 -224 0
-13 193 225 0
13 -193 225 0
-13 -193 -225 0
13 193 -225 0
-14 194 226 0
14 -194 226 0
-14 -194 -226 0
14 194 -226 0
-15 195 227 0
15 -195 227 0
-15 -195 -227 0
15 195 -227 0
-16 196 228 0
16 -196 228 0
-16 -196 -228 0
16 196 -228 0
-17 197 229 0
17 -197 229 0
-17 -197 -229 0
17 197 -229 0
-18 198 230 0
18 -198 230 0
-18 -198 -230 0
18 198 -230 0
-19 199 231 0
19 -199 231 0
-19 -199 -231 0
19 199 -231 0
-20 200 232 0
20 -200 232 0
-20 -200 -232 0
20 200 -232 0
-21 201 233 0
21 -201 233 0
-21 -201 -233 0
21 201 -233 0
-22 202 234 0
22 -202 234 0
-22 -202 -234 0
22 202 -234 0
-23 203 235 0
23 -203 235 0
-23 -203 -235 0
23 203 -235 0
-24 204 236 0
24 -204 236 0
-24 -204 -236 0
24 204 -236 0
-25 205 237 0
25 -205 237 0
-25 -205 -237 0
25 205 -237 0
-26 206 238 0
26 -206 238 0
-26 -206 -238 0
26 206 -238 0
-27 207 239 0
27 -207 239 0
-27 -207 -239 0
27 207 -239 0
-28 208 240 0
28 -208 240 0
-28 -208 -240 0
28 208 -240 0
-29 209 241 0
29 -209 241 0
-29 -209 -241 0
29 209 -241 0
-30 210 242 0
30 -210 242 0
-30 -210 -242 0
30 210 -242 0
-31 211 243 0
31 -211 243 0
-31 -211 -243 0
31 211 -243 0
-32 212 244 0
32 -212 244 0
-32 -212 -244 0
32 212 -244 0
33 -245 0
41 -245 0
245 -33 -41 0
34 -246 0
41 -246 0
246 -34 -41 0
35 -247 0
41 -247 0
247 -35 -41 0
36 -248 0
41 -248 0
248 -36 -41 0
37 -249 0
41 -249 0
249 -37 -41 0
38 -250 0
41 -250 0
250 -38 -41 0
39 -251 0
41 -251 0
251 -39 -41 0
40 -252 0
41 -252 0
252 -40 -41 0
1 253 0
2 253 0
-253 -1 -2 0
3 254 0
4 254 0
-254 -3 -4 0
5 255 0
6 255 0
-255 -5 -6 0
7 256 0
8 256 0
-256 -7 -8 0
9 257 0
10 257 0
-257 -9 -10 0
11 258 0
12 258 0
-258 -11 -12 0
13 259 0
14 259 0
-259 -13 -14 0
15 260 0
16 260 0
-260 -15 -16 0
17 261 0
18 261 0
-261 -17 -18 0
19 262 0
20 262 0
-262 -19 -20 0
21 263 0
22 263 0
-263 -21 -22 0
23 264 0
24 264 0
-264 -23 -24 0
25 265 0
26 265 0
-265 -25 -26 0
27 266 0
28 266 0
-266 -27 -28 0
29 267 0
30 267 0
-267 -29 -30 0
31 268 0
32 268 0
-268 -31 -32 0
1 269 0
5 269 0
-269 -1 -5 0
9 270 0
13 270 0
-270 -9 -13 0
2 271 0
6 271 0
-271 -2 -6 0
10 272 0
14 272 0
-272 -10 -14 0
3 273 0
7 273 0
-273 -3 -7 0
11 274 0
15 274 0
-274 -11 -15 0
4 275 0
8 275 0
-275 -4 -8 0
12 276 0
16 276 0
-276 -12 -16 0
17 277 0
21 277 0
-277 -17 -21 0
25 278 0
29 278 0
-278 -25 -29 0
18 279 0
22 279 0
-279 -18 -22 0
26 280 0
30 280 0
-280 -26 -30 0
19 281 0
23 281 0
-281 -19 -23 0
27 282 0
31 282 0
-282 -27 -31 0
20 283 0
24 283 0
-283 -20 -24 0
28 284 0
32 284 0
-284 -28 -32 0
1 285 0
253 285 0
-285 -1 -253 0
2 286 0
253 286 0
-286 -2 -253 0
3 287 0
254 287 0
-287 -3 -254 0
4 288 0
254 288 0
-288 -4 -254 0
5 289 0
255 289 0
-289 -5 -255 0
6 290 0
255 290 0
-290 -6 -255 0
7 291 0
256 291 0
-291 -7 -256 0
8 292 0
256 292 0
-292 -8 -256 0
9 293 0
257 293 0
-293 -9 -257 0
10 294 0
257 294 0
-294 -10 -257 0
11 295 0
258 295 0
-295 -11 -258 0
12 296 0
258 296 0
-296 -12 -258 0
13 297 0
259 297 0
-297 -13 -259 0
14 298 0
259 298 0
-298 -14 -259 0
15 299 0
260 299 0
-299 -15 -260 0
16 300 0
260 300 0
-300 -16 -260 0
17 301 0
261 301 0
-301 -17 -261 0
18 302 0
261 302 0
-302 -18 -261 0
19 303 0
262 303 0
-303 -19 -262 0
20 304 0
262 304 0
-304 -20 -262 0
21 305 0
263 305 0
-305 -21 -263 0
22 306 0
263 306 0
-306 -22 -263 0
23 307 0
264 307 0
-307 -23 -264 0
24 308 0
264 308 0
-308 -24 -264 0
25 309 0
265 309 0
-309 -25 -265 0
26 310 0
265 310 0
-310 -26 -265 0
27 311 0
266 311 0
-311 -27 -266 0
28 312 0
266 312 0
-312 -28 -266 0
29 313 0
267 313 0
-313 -29 -267 0
30 314 0
267 314 0
-314 -30 -267 0
31 315 0
268 315 0
-315 -31 -268 0
32 316 0
268 316 0
-316 -32 -268 0
1 317 0
269 317 0
-317 -1 -269 0
5 318 0
269 318 0
-318 -5 -269 0
9 319 0
270 319 0
-319 -9 -270 0
13 320 0
270 320 0
-320 -13 -270 0
2 321 0
271 321 0
-321 -2 -271 0
6 322 0
271 322 0
-322 -6 -271 0
10 323 0
272 323 0
-323 -10 -272 0
14 324 0
272 324 0
-324 -14 -272 0
3 325 0
273 325 0
-325 -3 -273 0
7 326 0
273 326 0
-326 -7 -273 0
11 327 0
274 327 0
-327 -11 -274 0
15 328 0
274 328 0
-328 -15 -274 0
4 329 0
275 329 0
-329 -4 -275 0
8 330 0
275 330 0
-330 -8 -275 0
12 331 0
276 331 0
-331 -12 -276 0
16 332 0
276 332 0
-332 -16 -276 0
17 333 0
277 333 0
-333 -17 -277 0
21 334 0
277 334 0
-334 -21 -277 0
25 335 0
278 335 0
-335 -25 -278 0
29 336 0
278 336 0
-336 -29 -278 0
18 337 0
279 337 0
-337 -18 -279 0
22 338 0
279 338 0
-338 -22 -279 0
26 339 0
280 339 0
-339 -26 -280 0
30 340 0
280 340 0
-340 -30 -280 0
19 341 0
281 341 0
-341 -19 -281 0
23 342 0
281 342 0
-342 -23 -281 0
27 343 0
282 343 0
-343 -27 -282 0
31 344 0
282 344 0
-344 -31 -282 0
20 345 0
283 345 0
-345 -20 -283 0
24 346 0
283 346 0
-346 -24 -283 0
28 347 0
284 347 0
-347 -28 -284 0
32 348 0
284 348 0
-348 -32 -284 0
285 349 0
286 349 0
-349 -285 -286 0
287 350 0
288 350 0
-350 -287 -288 0
289 351 0
290 351 0
-351 -289 -290 0
291 352 0
292 352 0
-352 -291 -292 0
293 353 0
294 353 0
-353 -293 -294 0
295 354 0
296 354 0
-354 -295 -296 0
297 355 0
298 355 0
-355 -297 -298 0
299 356 0
300 356 0
-356 -299 -300 0
301 357 0
302 357 0
-357 -301 -302 0
303 358 0
304 358 0
-358 -303 -304 0
305 359 0
306 359 0
-359 -305 -306 0
307 360 0
308 360 0
-360 -307 -308 0
309 361 0
310 361 0
-361 -309 -310 0
311 362 0
312 362 0
-362 -311 -312 0
313 363 0
314 363 0
-363 -313 -314 0
315 364 0
316 364 0
-364 -315 -316 0
317 365 0
318 365 0
-365 -317 -318 0
319 366 0
320 366 0
-366 -319 -320 0
321 367 0
322 367 0
-367 -321 -322 0
323 368 0
324 368 0
-368 -323 -324 0
325 369 0
326 369 0
-369 -325 -326 0
327 370 0
328 370 0
-370 -327 -328 0
329 371 0
330 371 0
-371 -329 -330 0
331 372 0
332 372 0
-372 -331 -332 0
333 373 0
334 373 0
-373 -333 -334 0
335 374 0
336 374 0
-374 -335 -336 0
337 375 0
338 375 0
-375 -337 -338 0
339 376 0
340 376 0
-376 -339 -340 0
341 377 0
342 377 0
-377 -341 -342 0
343 378 0
344 378 0
-378 -343 -344 0
345 379 0
346 379 0
-379 -345 -346 0
347 380 0
348 380 0
-380 -347 -348 0
349 381 0
350 381 0
-381 -349 -350 0
351 382 0
352 382 0
-382 -351 -352 0
353 383 0
354 383 0
-383 -353 -354 0
355 384 0
356 384 0
-384 -355 -356 0
357 385 0
358 385 0
-385 -357 -358 0
359 386 0
360 386 0
-386 -359 -360 0
361 387 0
362 387 0
-387 -361 -362 0
363 388 0
364 388 0
-388 -363 -364 0
365 389 0
366 389 0
-389 -365 -366 0
367 390 0
368 390 0
-390 -367 -368 0
369 391 0
370 391 0
-391 -369 -370 0
371 392 0
372 392 0
-392 -371 -372 0
373 393 0
374 393 0
-393 -373 -374 0
375 394 0
376 394 0
-394 -375 -376 0
377 395 0
378 395 0
-395 -377 -378 0
379 396 0
380 396 0
-396 -379 -380 0
349 397 0
381 397 0
-397 -349 -381 0
350 398 0
381 398 0
-398 -350 -381 0
351 399 0
382 399 0
-399 -351 -382 0
352 400 0
382 400 0
-400 -352 -382 0
353 401 0
383 401 0
-401 -353 -383 0
354 402 0
383 402 0
-402 -354 -383 0
355 403 0
384 403 0
-403 -355 -384 0
356 404 0
384 404 0
-404 -356 -384 0
357 405 0
385 405 0
-405 -357 -385 0
358 406 0
385 406 0
-406 -358 -385 0
359 407 0
386 407 0
-407 -359 -386 0
360 408 0
386 408 0
-408 -360 -386 0
361 409 0
387 409 0
-409 -361 -387 0
362 410 0
387 410 0
-410 -362 -387 0
363 411 0
388 411 0
-411 -363 -388 0
364 412 0
388 412 0
-412 -364 -388 0
365 413 0
389 413 0
-413 -365 -389 0
366 414 0
389 414 0
-414 -366 -389 0
367 415 0
390 415 0
-415 -367 -390 0
368 416 0
390 416 0
-416 -368 -390 0
369 417 0
391 417 0
-417 -369 -391 0
370 418 0
391 418 0
-418 -370 -391 0
371 419 0
392 419 0
-419 -371 -392 0
372 420 0
392 420 0
-420 -372 -392 0
373 421 0
393 421 0
-421 -373 -393 0
374 422 0
393 422 0
-422 -374 -393 0
375 423 0
394 423 0
-423 -375 -394 0
376 424 0
394 424 0
-424 -376 -394 0
377 425 0
395 425 0
-425 -377 -395 0
378 426 0
395 426 0
-426 -378 -395 0
379 427 0
396 427 0
-427 -379 -396 0
380 428 0
396 428 0
-428 -380 -396 0
397 429 0
398 429 0
-429 -397 -398 0
399 430 0
400 430 0
-430 -399 -400 0
401 431 0
402 431 0
-431 -401 -402 0
403 432 0
404 432 0
-432 -403 -404 0
405 433 0
406 433 0
-433 -405 -406 0
407 434 0
408 434 0
-434 -407 -408 0
409 435 0
410 435 0
-435 -409 -410 0
411 436 0
412 436 0
-436 -411 -412 0
413 437 0
414 437 0
-437 -413 -414 0
415 438 0
416 438 0
-438 -415 -416 0
417 439 0
418 439 0
-439 -417 -418 0
419 440 0
420 440 0
-440 -419 -420 0
421 441 0
422 441 0
-441 -421 -422 0
423 442 0
424 442 0
-442 -423 -424 0
425 443 0
426 443 0
-443 -425 -426 0
427 444 0
428 444 0
-444 -427 -428 0
429 445 0
430 445 0
-445 -429 -430 0
431 446 0
432 446 0
-446 -431 -432 0
429 447 0
431 447 0
-447 -429 -431 0
430 448 0
432 448 0
-448 -430 -432 0
433 449 0
434 449 0
-449 -433 -434 0
435 450 0
436 450 0
-450 -435 -436 0
433 451 0
435 451 0
-451 -433 -435 0
434 452 0
436 452 0
-452 -434 -436 0
429 453 0
445 453 0
-453 -429 -445 0
430 454 0
445 454 0
-454 -430 -445 0
431 455 0
446 455 0
-455 -431 -446 0
432 456 0
446 456 0
-456 -432 -446 0
429 457 0
447 457 0
-457 -429 -447 0
431 458 0
447 458 0
-458 -431 -447 0
430 459 0
448 459 0
-459 -430 -448 0
432 460 0
448 460 0
-460 -432 -448 0
433 461 0
449 461 0
-461 -433 -449 0
434 462 0
449 462 0
-462 -434 -449 0
435 463 0
450 463 0
-463 -435 -450 0
436 464 0
450 464 0
-464 -436 -450 0
433 465 0
451 465 0
-465 -433 -451 0
435 466 0
451 466 0
-466 -435 -451 0
434 467 0
452 467 0
-467 -434 -452 0
436 468 0
452 468 0
-468 -436 -452 0
453 469 0
454 469 0
-469 -453 -454 0
455 470 0
456 470 0
-470 -455 -456 0
457 471 0
458 471 0
-471 -457 -458 0
459 472 0
460 472 0
-472 -459 -460 0
461 473 0
462 473 0
-473 -461 -462 0
463 474 0
464 474 0
-474 -463 -464 0
465 475 0
466 475 0
-475 -465 -466 0
467 476 0
468 476 0
-476 -467 -468 0
245 477 0
473 477 0
-477 -245 -473 0
246 478 0
474 478 0
-478 -246 -474 0
247 479 0
475 479 0
-479 -247 -475 0
248 480 0
476 480 0
-480 -248 -476 0
249 481 0
469 481 0
-481 -249 -469 0
250 482 0
470 482 0
-482 -250 -470 0
251 483 0
471 483 0
-483 -251 -471 0
252 484 0
472 484 0
-484 -252 -472 0
245 485 0
477 485 0
-485 -245 -477 0
473 486 0
477 486 0
-486 -473 -477 0
246 487 0
478 487 0
-487 -246 -478 0
474 488 0
478 488 0
-488 -474 -478 0
247 489 0
479 489 0
-489 -247 -479 0
475 490 0
479 490 0
-490 -475 -479 0
248 491 0
480 491 0
-491 -248 -480 0
476 492 0
480 492 0
-492 -476 -480 0
249 493 0
481 493 0
-493 -249 -481 0
469 494 0
481 494 0
-494 -469 -481 0
250 495 0
482 495 0
-495 -250 -482 0
470 496 0
482 496 0
-496 -470 -482 0
251 497 0
483 497 0
-497 -251 -483 0
471 498 0
483 498 0
-498 -471 -483 0
252 499 0
484 499 0
-499 -252 -484 0
472 500 0
484 500 0
-500 -472 -484 0
485 501 0
486 501 0
-501 -485 -486 0
487 502 0
488 502 0
-502 -487 -488 0
489 503 0
490 503 0
-503 -489 -490 0
491 504 0
492 504 0
-504 -491 -492 0
493 505 0
494 505 0
-505 -493 -494 0
495 506 0
496 506 0
-506 -495 -496 0
497 507 0
498 507 0
-507 -497 -498 0
499 508 0
500 508 0
-508 -499 -500 0
437 509 0
501 509 0
-509 -437 -501 0
438 510 0
502 510 0
-510 -438 -502 0
439 511 0
503 511 0
-511 -439 -503 0
440 512 0
504 512 0
-512 -440 -504 0
441 513 0
505 513 0
-513 -441 -505 0
442 514 0
506 514 0
-514 -442 -506 0
443 515 0
507 515 0
-515 -443 -507 0
444 516 0
508 516 0
-516 -444 -508 0
437 517 0
509 517 0
-517 -437 -509 0
501 518 0
509 518 0
-518 -501 -509 0
438 519 0
510 519 0
-519 -438 -510 0
502 520 0
510 520 0
-520 -502 -510 0
439 521 0
511 521 0
-521 -439 -511 0
503 522 0
511 522 0
-522 -503 -511 0
440 523 0
512 523 0
-523 -440 -512 0
504 524 0
512 524 0
-524 -504 -512 0
441 525 0
513 525 0
-525 -441 -513 0
505 526 0
513 526 0
-526 -505 -513 0
442 527 0
514 527 0
-527 -442 -514 0
506 528 0
514 528 0
-528 -506 -514 0
443 529 0
515 529 0
-529 -443 -515 0
507 530 0
515 530 0
-530 -507 -515 0
444 531 0
516 531 0
-531 -444 -516 0
508 532 0
516 532 0
-532 -508 -516 0
517 533 0
518 533 0
-533 -517 -518 0
519 534 0
520 534 0
-534 -519 -520 0
521 535 0
522 535 0
-535 -521 -522 0
523 536 0
524 536 0
-536 -523 -524 0
527 537 0
528 537 0
-537 -527 -528 0
531 538 0
532 538 0
-538 -531 -532 0
529 539 0
530 539 0
-539 -529 -530 0
525 540 0
526 540 0
-540 -525 -526 0
-533 -541 0
533 541 0
-534 -542 0
534 542 0
-535 -543 0
535 543 0
-533 -544 0
533 544 0
-534 -545 0
534 545 0
-536 -546 0
536 546 0
-533 -547 0
533 547 0
-535 -548 0
535 548 0
-536 -549 0
536 549 0
-534 -550 0
534 550 0
-535 -551 0
535 551 0
-536 -552 0
536 552 0
-537 -553 0
537 553 0
-538 -554 0
538 554 0
-537 -555 0
537 555 0
-539 -556 0
539 556 0
-540 -557 0
540 557 0
-538 -558 0
538 558 0
-540 -559 0
540 559 0
-539 -560 0
539 560 0
-540 -561 0
540 561 0
-537 -562 0
537 562 0
-539 -563 0
539 563 0
-540 -564 0
540 564 0
-537 -565 0
537 565 0
-538 -566 0
538 566 0
-540 -567 0
540 567 0
-539 -568 0
539 568 0
-538 -569 0
538 569 0
-537 -570 0
537 570 0
-539 -571 0
539 571 0
-538 -572 0
538 572 0
-534 -573 0
534 573 0
-536 -574 0
536 574 0
-534 -575 0
534 575 0
-535 -576 0
535 576 0
-533 -577 0
533 577 0
-536 -578 0
536 578 0
-533 -579 0
533 579 0
-535 -580 0
535 580 0
541 -581 0
542 -581 0
543 -581 0
536 -581 0
581 -541 -542 -543 -536 0
544 -582 0
545 -582 0
535 -582 0
546 -582 0
582 -544 -545 -535 -546 0
547 -583 0
534 -583 0
548 -583 0
549 -583 0
583 -547 -534 -548 -549 0
533 -584 0
550 -584 0
551 -584 0
552 -584 0
584 -533 -550 -551 -552 0
561 -585 0
562 -585 0
563 -585 0
538 -585 0
585 -561 -562 -563 -538 0
564 -586 0
565 -586 0
539 -586 0
566 -586 0
586 -564 -565 -539 -566 0
567 -587 0
537 -587 0
568 -587 0
569 -587 0
587 -567 -537 -568 -569 0
540 -588 0
570 -588 0
571 -588 0
572 -588 0
588 -540 -570 -571 -572 0
-581 589 0
-582 589 0
-583 589 0
-584 589 0
-589 581 582 583 584 0
-585 590 0
-586 590 0
-587 590 0
-588 590 0
-590 585 586 587 588 0
540 -591 0
553 -591 0
539 -591 0
554 -591 0
589 -591 0
591 -540 -553 -539 -554 -589 0
540 -592 0
555 -592 0
556 -592 0
538 -592 0
589 -592 0
592 -540 -555 -556 -538 -589 0
557 -593 0
537 -593 0
539 -593 0
558 -593 0
589 -593 0
593 -557 -537 -539 -558 -589 0
559 -594 0
537 -594 0
560 -594 0
538 -594 0
589 -594 0
594 -559 -537 -560 -538 -589 0
533 -595 0
573 -595 0
535 -595 0
574 -595 0
590 -595 0
595 -533 -573 -535 -574 -590 0
533 -596 0
575 -596 0
576 -596 0
536 -596 0
590 -596 0
596 -533 -575 -576 -536 -590 0
577 -597 0
534 -597 0
535 -597 0
578 -597 0
590 -597 0
597 -577 -534 -535 -578 -590 0
579 -598 0
534 -598 0
580 -598 0
536 -598 0
590 -598 0
598 -579 -534 -580 -536 -590 0
533 -599 0
591 -599 0
599 -533 -591 0
534 -600 0
591 -600 0
600 -534 -591 0
535 -601 0
591 -601 0
601 -535 -591 0
536 -602 0
591 -602 0
602 -536 -591 0
533 -603 0
592 -603 0
603 -533 -592 0
534 -604 0
592 -604 0
604 -534 -592 0
535 -605 0
592 -605 0
605 -535 -592 0
536 -606 0
592 -606 0
606 -536 -592 0
533 -607 0
593 -607 0
607 -533 -593 0
534 -608 0
593 -608 0
608 -534 -593 0
535 -609 0
593 -609 0
609 -535 -593 0
536 -610 0
593 -610 0
610 -536 -593 0
533 -611 0
594 -611 0
611 -533 -594 0
534 -612 0
594 -612 0
612 -534 -594 0
535 -613 0
594 -613 0
613 -535 -594 0
536 -614 0
594 -614 0
614 -536 -594 0
540 -615 0
595 -615 0
615 -540 -595 0
537 -616 0
595 -616 0
616 -537 -595 0
539 -617 0
595 -617 0
617 -539 -595 0
538 -618 0
595 -618 0
618 -538 -595 0
540 -619 0
596 -619 0
619 -540 -596 0
537 -620 0
596 -620 0
620 -537 -596 0
539 -621 0
596 -621 0
621 -539 -596 0
538 -622 0
596 -622 0
622 -538 -596 0
540 -623 0
597 -623 0
623 -540 -597 0
537 -624 0
597 -624 0
624 -537 -597 0
539 -625 0
597 -625 0
625 -539 -597 0
538 -626 0
597 -626 0
626 -538 -597 0
540 -627 0
598 -627 0
627 -540 -598 0
537 -628 0
598 -628 0
628 -537 -598 0
539 -629 0
598 -629 0
629 -539 -598 0
538 -630 0
598 -630 0
630 -538 -598 0
1 631 0
599 631 0
-631 -1 -599 0
2 632 0
600 632 0
-632 -2 -600 0
3 633 0
601 633 0
-633 -3 -601 0
4 634 0
602 634 0
-634 -4 -602 0
5 635 0
603 635 0
-635 -5 -603 0
6 636 0
604 636 0
-636 -6 -604 0
7 637 0
605 637 0
-637 -7 -605 0
8 638 0
606 638 0
-638 -8 -606 0
9 639 0
607 639 0
-639 -9 -607 0
10 640 0
608 640 0
-640 -10 -608 0
11 641 0
609 641 0
-641 -11 -609 0
12 642 0
610 642 0
-642 -12 -610 0
13 643 0
611 643 0
-643 -13 -611 0
14 644 0
612 644 0
-644 -14 -612 0
15 645 0
613 645 0
-645 -15 -613 0
16 646 0
614 646 0
-646 -16 -614 0
17 647 0
615 647 0
-647 -17 -615 0
18 648 0
616 648 0
-648 -18 -616 0
19 649 0
617 649 0
-649 -19 -617 0
20 650 0
618 650 0
-650 -20 -618 0
21 651 0
619 651 0
-651 -21 -619 0
22 652 0
620 652 0
-652 -22 -620 0
23 653 0
621 653 0
-653 -23 -621 0
24 654 0
622 654 0
-654 -24 -622 0
25 655 0
623 655 0
-655 -25 -623 0
26 656 0
624 656 0
-656 -26 -624 0
27 657 0
625 657 0
-657 -27 -625 0
28 658 0
626 658 0
-658 -28 -626 0
29 659 0
627 659 0
-659 -29 -627 0
30 660 0
628 660 0
-660 -30 -628 0
31 661 0
629 661 0
-661 -31 -629 0
32 662 0
630 662 0
-662 -32 -630 0
1 663 0
631 663 0
-663 -1 -631 0
599 664 0
631 664 0
-664 -599 -631 0
2 665 0
632 665 0
-665 -2 -632 0
600 666 0
632 666 0
-666 -600 -632 0
3 667 0
633 667 0
-667 -3 -633 0
601 668 0
633 668 0
-668 -601 -633 0
4 669 0
634 669 0
-669 -4 -634 0
602 670 0
634 670 0
-670 -602 -634 0
5 671 0
635 671 0
-671 -5 -635 0
603 672 0
635 672 0
-672 -603 -635 0
6 673 0
636 673 0
-673 -6 -636 0
604 674 0
636 674 0
-674 -604 -636 0
7 675 0
637 675 0
-675 -7 -637 0
605 676 0
637 676 0
-676 -605 -637 0
8 677 0
638 677 0
-677 -8 -638 0
606 678 0
638 678 0
-678 -606 -638 0
9 679 0
639 679 0
-679 -9 -639 0
607 680 0
639 680 0
-680 -607 -639 0
10 681 0
640 681 0
-681 -10 -640 0
608 682 0
640 682 0
-682 -608 -640 0
11 683 0
641 683 0
-683 -11 -641 0
609 684 0
641 684 0
-684 -609 -641 0
12 685 0
642 685 0
-685 -12 -642 0
610 686 0
642 686 0
-686 -610 -642 0
13 687 0
643 687 0
-687 -13 -643 0
611 688 0
643 688 0
-688 -611 -643 0
14 689 0
644 689 0
-689 -14 -644 0
612 690 0
644 690 0
-690 -612 -644 0
15 691 0
645 691 0
-691 -15 -645 0
613 692 0
645 692 0
-692 -613 -645 0
16 693 0
646 693 0
-693 -16 -646 0
614 694 0
646 694 0
-694 -614 -646 0
17 695 0
647 695 0
-695 -17 -647 0
615 696 0
647 696 0
-696 -615 -647 0
18 697 0
648 697 0
-697 -18 -648 0
616 698 0
648 698 0
-698 -616 -648 0
19 699 0
649 699 0
-699 -19 -649 0
617 700 0
649 700 0
-700 -617 -649 0
20 701 0
650 701 0
-701 -20 -650 0
618 702 0
650 702 0
-702 -618 -650 0
21 703 0
651 703 0
-703 -21 -651 0
619 704 0
651 704 0
-704 -619 -651 0
22 705 0
652 705 0
-705 -22 -652 0
620 706 0
652 706 0
-706 -620 -652 0
23 707 0
653 707 0
-707 -23 -653 0
621 708 0
653 708 0
-708 -621 -653 0
24 709 0
654 709 0
-709 -24 -654 0
622 710 0
654 710 0
-710 -622 -654 0
25 711 0
655 711 0
-711 -25 -655 0
623 712 0
655 712 0
-712 -623 -655 0
26 713 0
656 713 0
-713 -26 -656 0
624 714 0
656 714 0
-714 -624 -656 0
27 715 0
657 715 0
-715 -27 -657 0
625 716 0
657 716 0
-716 -625 -657 0
28 717 0
658 717 0
-717 -28 -658 0
626 718 0
658 718 0
-718 -626 -658 0
29 719 0
659 719 0
-719 -29 -659 0
627 720 0
659 720 0
-720 -627 -659 0
30 721 0
660 721 0
-721 -30 -660 0
628 722 0
660 722 0
-722 -628 -660 0
31 723 0
661 723 0
-723 -31 -661 0
629 724 0
661 724 0
-724 -629 -661 0
32 725 0
662 725 0
-725 -32 -662 0
630 726 0
662 726 0
-726 -630 -662 0
663 727 0
664 727 0
-727 -663 -664 0
665 728 0
666 728 0
-728 -665 -666 0
667 729 0
668 729 0
-729 -667 -668 0
669 730 0
670 730 0
-730 -669 -670 0
671 731 0
672 731 0
-731 -671 -672 0
673 732 0
674 732 0
-732 -673 -674 0
675 733 0
676 733 0
-733 -675 -676 0
677 734 0
678 734 0
-734 -677 -678 0
679 735 0
680 735 0
-735 -679 -680 0
681 736 0
682 736 0
-736 -681 -682 0
683 737 0
684 737 0
-737 -683 -684 0
685 738 0
686 738 0
-738 -685 -686 0
687 739 0
688 739 0
-739 -687 -688 0
689 740 0
690 740 0
-740 -689 -690 0
691 741 0
692 741 0
-741 -691 -692 0
693 742 0
694 742 0
-742 -693 -694 0
695 743 0
696 743 0
-743 -695 -696 0
697 744 0
698 744 0
-744 -697 -698 0
699 745 0
700 745 0
-745 -699 -700 0
701 746 0
702 746 0
-746 -701 -702 0
703 747 0
704 747 0
-747 -703 -704 0
705 748 0
706 748 0
-748 -705 -706 0
707 749 0
708 749 0
-749 -707 -708 0
709 750 0
710 750 0
-750 -709 -710 0
711 751 0
712 751 0
-751 -711 -712 0
713 752 0
714 752 0
-752 -713 -714 0
715 753 0
716 753 0
-753 -715 -716 0
717 754 0
718 754 0
-754 -717 -718 0
719 755 0
720 755 0
-755 -719 -720 0
721 756 0
722 756 0
-756 -721 -722 0
723 757 0
724 757 0
-757 -723 -724 0
725 758 0
726 758 0
-758 -725 -726 0
727 -759 0
-727 759 0
728 -760 0
-728 760 0
729 -761 0
-729 761 0
730 -762 0
-730 762 0
731 -763 0
-731 763 0
732 -764 0
-732 764 0
733 -765 0
-733 765 0
734 -766 0
-734 766 0
735 -767 0
-735 767 0
736 -768 0
-736 768 0
737 -769 0
-737 769 0
738 -770 0
-738 770 0
739 -771 0
-739 771 0
740 -772 0
-740 772 0
741 -773 0
-741 773 0
742 -774 0
-742 774 0
743 -775 0
-743 775 0
744 -776 0
-744 776 0
745 -777 0
-745 777 0
746 -778 0
-746 778 0
747 -779 0
-747 779 0
748 -780 0
-748 780 0
749 -781 0
-749 781 0
750 -782 0
-750 782 0
751 -783 0
-751 783 0
752 -784 0
-752 784 0
753 -785 0
-753 785 0
754 -786 0
-754 786 0
755 -787 0
-755 787 0
756 -788 0
-756 788 0
757 -789 0
-757 789 0
758 -790 0
-758 790 0
-213 -791 0
213 791 0
-759 -792 0
759 792 0
213 -793 0
792 -793 0
793 -213 -792 0
759 -794 0
791 -794 0
794 -759 -791 0
-793 795 0
-794 795 0
-795 793 794 0
-214 -796 0
214 796 0
-760 -797 0
760 797 0
214 -798 0
797 -798 0
798 -214 -797 0
760 -799 0
796 -799 0
799 -760 -796 0
-798 800 0
-799 800 0
-800 798 799 0
-215 -801 0
215 801 0
-761 -802 0
761 802 0
215 -803 0
802 -803 0
803 -215 -802 0
761 -804 0
801 -804 0
804 -761 -801 0
-803 805 0
-804 805 0
-805 803 804 0
-216 -806 0
216 806 0
-762 -807 0
762 807 0
216 -808 0
807 -808 0
808 -216 -807 0
762 -809 0
806 -809 0
809 -762 -806 0
-808 810 0
-809 810 0
-810 808 809 0
-217 -811 0
217 811 0
-763 -812 0
763 812 0
217 -813 0
812 -813 0
813 -217 -812 0
763 -814 0
811 -814 0
814 -763 -811 0
-813 815 0
-814 815 0
-815 813 814 0
-218 -816 0
218 816 0
-764 -817 0
764 817 0
218 -818 0
817 -818 0
818 -218 -817 0
764 -819 0
816 -819 0
819 -764 -816 0
-818 820 0
-819 820 0
-820 818 819 0
-219 -821 0
219 821 0
-765 -822 0
765 822 0
219 -823 0
822 -823 0
823 -219 -822 0
765 -824 0
821 -824 0
824 -765 -821 0
-823 825 0
-824 825 0
-825 823 824 0
-220 -826 0
220 826 0
-766 -827 0
766 827 0
220 -828 0
827 -828 0
828 -220 -827 0
766 -829 0
826 -829 0
829 -766 -826 0
-828 830 0
-829 830 0
-830 828 829 0
-221 -831 0
221 831 0
-767 -832 0
767 832 0
221 -833 0
832 -833 0
833 -221 -832 0
767 -834 0
831 -834 0
834 -767 -831 0
-833 835 0
-834 835 0
-835 833 834 0
-222 -836 0
222 836 0
-768 -837 0
768 837 0
222 -838 0
837 -838 0
838 -222 -837 0
768 -839 0
836 -839 0
839 -768 -836 0
-838 840 0
-839 840 0
-840 838 839 0
-223 -841 0
223 841 0
-769 -842 0
769 842 0
223 -843 0
842 -843 0
843 -223 -842 0
769 -844 0
841 -844 0
844 -769 -841 0
-843 845 0
-844 845 0
-845 843 844 0
-224 -846 0
224 846 0
-770 -847 0
770 847 0
224 -848 0
847 -848 0
848 -224 -847 0
770 -849 0
846 -849 0
849 -770 -846 0
-848 850 0
-849 850 0
-850 848 849 0
-225 -851 0
225 851 0
-771 -852 0
771 852 0
225 -853 0
852 -853 0
853 -225 -852 0
771 -854 0
851 -854 0
854 -771 -851 0
-853 855 0
-854 855 0
-855 853 854 0
-226 -856 0
226 856 0
-772 -857 0
772 857 0
226 -858 0
857 -858 0
858 -226 -857 0
772 -859 0
856 -859 0
859 -772 -856 0
-858 860 0
-859 860 0
-860 858 859 0
-227 -861 0
227 861 0
-773 -862 0
773 862 0
227 -863 0
862 -863 0
863 -227 -862 0
773 -864 0
861 -864 0
864 -773 -861 0
-863 865 0
-864 865 0
-865 863 864 0
-228 -866 0
228 866 0
-774 -867 0
774 867 0
228 -868 0
867 -868 0
868 -228 -867 0
774 -869 0
866 -869 0
869 -774 -866 0
-868 870 0
-869 870 0
-870 868 869 0
-229 -871 0
229 871 0
-775 -872 0
775 872 0
229 -873 0
872 -873 0
873 -229 -872 0
775 -874 0
871 -874 0
874 -775 -871 0
-873 875 0
-874 875 0
-875 873 874 0
-230 -876 0
230 876 0
-776 -877 0
776 877 0
230 -878 0
877 -878 0
878 -230 -877 0
776 -879 0
876 -879 0
879 -776 -876 0
-878 880 0
-879 880 0
-880 878 879 0
-231 -881 0
231 881 0
-777 -882 0
777 882 0
231 -883 0
882 -883 0
883 -231 -882 0
777 -884 0
881 -884 0
884 -777 -881 0
-883 885 0
-884 885 0
-885 883 884 0
-232 -886 0
232 886 0
-778 -887 0
778 887 0
232 -888 0
887 -888 0
888 -232 -887 0
778 -889 0
886 -889 0
889 -778 -886 0
-888 890 0
-889 890 0
-890 888 889 0
-233 -891 0
233 891 0
-779 -892 0
779 892 0
233 -893 0
892 -893 0
893 -233 -892 0
779 -894 0
891 -894 0
894 -779 -891 0
-893 895 0
-894 895 0
-895 893 894 0
-234 -896 0
234 896 0
-780 -897 0
780 897 0
234 -898 0
897 -898 0
898 -234 -897 0
780 -899 0
896 -899 0
899 -780 -896 0
-898 900 0
-899 900 0
-900 898 899 0
-235 -901 0
235 901 0
-781 -902 0
781 902 0
235 -903 0
902 -903 0
903 -235 -902 0
781 -904 0
901 -904 0
904 -781 -901 0
-903 905 0
-904 905 0
-905 903 904 0
-236 -906 0
236 906 0
-782 -907 0
782 907 0
236 -908 0
907 -908 0
908 -236 -907 0
782 -909 0
906 -909 0
909 -782 -906 0
-908 910 0
-909 910 0
-910 908 909 0
-237 -911 0
237 911 0
-783 -912 0
783 912 0
237 -913 0
912 -913 0
913 -237 -912 0
783 -914 0
911 -914 0
914 -783 -911 0
-913 915 0
-914 915 0
-915 913 914 0
-238 -916 0
238 916 0
-784 -917 0
784 917 0
238 -918 0
917 -918 0
918 -238 -917 0
784 -919 0
916 -919 0
919 -784 -916 0
-918 920 0
-919 920 0
-920 918 919 0
-239 -921 0
239 921 0
-785 -922 0
785 922 0
239 -923 0
922 -923 0
923 -239 -922 0
785 -924 0
921 -924 0
924 -785 -921 0
-923 925 0
-924 925 0
-925 923 924 0
-240 -926 0
240 926 0
-786 -927 0
786 927 0
240 -928 0
927 -928 0
928 -240 -927 0
786 -929 0
926 -929 0
929 -786 -926 0
-928 930 0
-929 930 0
-930 928 929 0
-241 -931 0
241 931 0
-787 -932 0
787 932 0
241 -933 0
932 -933 0
933 -241 -932 0
787 -934 0
931 -934 0
934 -787 -931 0
-933 935 0
-934 935 0
-935 933 934 0
-242 -936 0
242 936 0
-788 -937 0
788 937 0
242 -938 0
937 -938 0
938 -242 -937 0
788 -939 0
936 -939 0
939 -788 -936 0
-938 940 0
-939 940 0
-940 938 939 0
-243 -941 0
243 941 0
-789 -942 0
789 942 0
243 -943 0
942 -943 0
943 -243 -942 0
789 -944 0
941 -944 0
944 -789 -941 0
-943 945 0
-944 945 0
-945 943 944 0
-244 -946 0
244 946 0
-790 -947 0
790 947 0
244 -948 0
947 -948 0
948 -244 -947 0
790 -949 0
946 -949 0
949 -790 -946 0
-948 950 0
-949 950 0
-950 948 949 0
-795 42 0
-800 42 0
-805 42 0
-810 42 0
-815 42 0
-820 42 0
-825 42 0
-830 42 0
-835 42 0
-840 42 0
-845 42 0
-850 42 0
-855 42 0
-860 42 0
-865 42 0
-870 42 0
-875 42 0
-880 42 0
-885 42 0
-890 42 0
-895 42 0
-900 42 0
-905 42 0
-910 42 0
-915 42 0
-920 42 0
-925 42 0
-930 42 0
-935 42 0
-940 42 0
-945 42 0
-950 42 0
-42 795 800 805 810 815 820 825 830 835 840 845 850 855 860 865 870 875 880 885 890 895 900 905 910 915 920 925 930 935 940 945 950 0
42 0